nNurses = 63;
nHours = 37;
minHours = 8;
maxHours = 11;
maxConsec = 7;
maxPresence = 23;
demand = [9, 10, 12, 17, 13, 17, 16, 11, 9, 10, 7, 9, 12, 9, 14, 15, 10, 15, 12, 12, 8, 13, 10, 10, 14, 11, 9, 10, 10, 7, 7, 8, 5, 10, 9, 14, 11];
